Optimal - objective value 18.00000000
     20 x_0_21                  1                       1
     22 x_1_3                   1                       1
     33 x_1_14                  1                       1
    112 x_6_8                   1                       4
    118 x_6_14                  1                       1
    129 x_7_11                  1                       2
    132 x_7_14                  1                       1
    184 x_11_20                 1                       3
    220 x_16_21                 1                       1
    230 x_20_21                 1                       3
    271 f_0_21                  9                       0
    275 f_1_3                   5                       0
    276 f_3_1                   4                       0
    297 f_1_14                3.5                       0
    298 f_14_1                5.5                       0
    455 f_6_8                   5                       0
    456 f_8_6                   4                       0
    467 f_6_14                3.5                       0
    468 f_14_6                5.5                       0
    489 f_7_11                1.5                       0
    490 f_11_7                7.5                       0
    495 f_7_14                  7                       0
    496 f_14_7                  2                       0
    599 f_11_20                 1                       0
    600 f_20_11                 8                       0
    671 f_16_21                 4                       0
    672 f_21_16                 5                       0
    691 f_20_21               0.5                       0
    692 f_21_20               8.5                       0
